c SAT Generator for power-law distributed variable frequencies
c -g u -v 20 -c 91 -k 3 -p 2.750000 -b 3.200000 -f /home/schmidt/Devel/ni-kop-sat/data/ensemble/ruf20-91/ruf20-91-77 -u 1 -U 1 -s 1183600890
p cnf 20 91
10 17 -20 0
-2 -13 -15 0
-1 13 19 0
-2 -14 20 0
5 -8 -19 0
-2 -8 -13 0
-12 -13 17 0
6 9 -18 0
1 9 -11 0
-13 -17 -19 0
4 5 20 0
1 3 17 0
6 8 -15 0
-4 -6 19 0
3 4 13 0
5 8 -12 0
1 -12 19 0
5 -18 -19 0
9 -12 -18 0
-12 -14 -20 0
5 14 -20 0
-14 15 18 0
-7 10 16 0
6 -11 -17 0
11 -17 20 0
-2 -11 15 0
-11 -12 -19 0
-11 13 14 0
4 10 -12 0
-5 -11 -16 0
11 -16 19 0
-5 -6 14 0
-12 -19 20 0
-8 14 20 0
2 12 17 0
4 -10 14 0
6 7 -10 0
1 14 -15 0
2 10 16 0
-9 -13 -19 0
5 -7 -10 0
10 -17 -19 0
-1 -11 -17 0
-1 -5 -10 0
-2 5 18 0
1 -18 -19 0
6 -10 -12 0
-3 -8 -12 0
-8 -9 -11 0
-4 -11 -19 0
-3 7 8 0
-15 16 -18 0
6 -8 10 0
-5 11 -12 0
-1 5 -8 0
6 -14 -20 0
2 -17 19 0
-4 -5 -16 0
-7 -10 -20 0
2 -7 -17 0
5 -7 12 0
-2 -13 -17 0
-5 10 -14 0
-2 5 6 0
-2 8 -13 0
-5 14 19 0
1 7 16 0
-7 18 -19 0
6 8 -16 0
-6 16 -17 0
-14 -15 17 0
1 -6 16 0
1 8 -14 0
5 14 17 0
-4 12 -20 0
6 -10 -18 0
-4 11 14 0
12 -15 -18 0
1 3 14 0
-1 -6 -17 0
5 6 -20 0
9 11 20 0
6 -13 -20 0
2 -7 13 0
5 -6 -9 0
16 17 -19 0
-9 10 -11 0
7 -9 -18 0
-1 5 17 0
-1 -2 14 0
7 15 -18 0
